\ Model x1_copy
\ LP format - for model browsing. Use MPS format to capture full model detail.
\ Signature: 0x6e732cc379c0001a
Maximize
 
Subject To
 c_e_x4_: x5 = -80
 c_e_x8_: x9 = 73855.62
 c_e_x10_: x11 = -80
 c_e_x12_: x13 = 44569.29635053264
 c_u_x129_: - x5 - x130 - 2 x131 - 4 x132 - 8 x133 - 16 x134 - 32 x135
   - 64 x136 <= 0.499
 c_u_x138_: - x11 - x139 - 2 x140 - 4 x141 - 8 x142 - 16 x143 - 32 x144
   - 64 x145 <= 0.499
 c_l_x147_: x148 >= 0
 c_l_x149_: x150 >= 0
 c_l_x151_: x152 >= 0
 c_l_x153_: x154 >= 0
 c_l_x155_: x156 >= 0
 c_l_x157_: x158 >= 0
 c_u_x179_: x119 + 300000 x143 - x156 <= 300000
 c_u_x180_: x119 + 300000 x144 - x158 <= 300000
 c_u_x181_: x119 + 300000 x145 - x160 <= 300000
 c_l_x184_: x185 >= 0
 c_l_x186_: x187 >= 0
 c_l_x188_: x189 >= 0
 c_l_x190_: x191 >= 0
 c_l_x192_: x193 >= 0
 c_u_x211_: 300000 x130 - x183 + x197 <= 300000
 c_u_x212_: 300000 x131 - x185 + x197 <= 300000
 c_u_x214_: 300000 x133 - x189 + x197 <= 300000
 c_u_x215_: 300000 x134 - x191 + x197 <= 300000
 c_u_x216_: 300000 x135 - x193 + x197 <= 300000
 c_u_x217_: 300000 x136 - x195 + x197 <= 300000
 c_u_x232_: x219 - x233 <= 0
 c_u_x234_: x221 - x233 <= 0
 c_u_x235_: x223 - x233 <= 0
 c_u_x236_: x225 - x233 <= 0
 c_u_x237_: x227 - x233 <= 0
 c_u_x238_: x229 - x233 <= 0
 c_u_x239_: x231 - x233 <= 0
 c_u_x241_: - 300000 x131 + x221 <= 0
 c_u_x243_: - 300000 x133 + x225 <= 0
 c_u_x244_: - 300000 x134 + x227 <= 0
 c_u_x245_: - 300000 x135 + x229 <= 0
 c_e_x290_: 43.63211166088986 x9 + 84.24467756653679 x119 + x148 + 2 x150
   + 4 x152 + 8 x154 + 16 x156 + 32 x158 + 64 x160 + x291 = 0
 c_e_x292_: - x183 - 2 x185 - 4 x187 - 8 x189 - 16 x191 - 32 x193 - 64 x195
   - 84.24467756653679 x197 + x219 + 2 x221 + 4 x223 + 8 x225 + 16 x227
   + 32 x229 + 64 x231 + 84.24467756653679 x233 + x293 = 0
 c_u_x296_: x9 - x197 + 300000 x297 <= 300000
 c_u_x298_: x13 - x197 - 300000 x297 <= 0
 c_u_x299_: - x119 + x233 <= 0
 c_u_x300_: - x13 + x233 <= 0
 c_u_x311_: x293 - x310 <= 0
 c_u_x312_: - x291 + x310 + 1e+07 x313 <= 1e+07
Bounds
 x5 free
 x9 free
 x11 free
 x13 free
 x119 free
 x148 free
 x150 free
 x152 free
 x154 free
 x156 free
 x158 free
 x160 free
 x183 free
 x185 free
 x187 free
 x189 free
 x191 free
 x193 free
 x195 free
 x197 free
 x219 free
 x221 free
 x223 free
 x225 free
 x227 free
 x229 free
 x231 free
 x233 free
 x291 free
 x293 free
 x310 free
Binaries
 x130 x131 x132 x133 x134 x135 x136 x139 x140 x141 x142 x143 x144 x145 x297
 x313
End
